files/upTests/tuplesComplex/0001.eprime.solution
language ESSENCE' 1.0
$ minion Nodes: 3
$ minion TotalTime: 0.000892
$ Savile Row TotalTime: 0.292
letting pain_tuple2 be 3
letting pain_tuple1_tuple2_ExplicitVarSize_tuple2_tuple2 be [5, 5]
letting pain_tuple1_tuple2_ExplicitVarSize_tuple2_tuple1 be [1, 1]
letting pain_tuple1_tuple1_ExplicitVarSize_tuple2 be [1, 3]
letting pain_tuple1_tuple1_ExplicitVarSize_tuple1 be [0, 1]
letting pain_tuple1_tuple2_ExplicitVarSize_tuple1 be [0, 1]
